39 59 34 41 
































































































76 38 32 49 
57 53 37 8 
3 61 58 67 15 
74 71 54 51 65 
24 19 29 7 
40 44 43 66 
13 55 11 48 
45 46 63 2 
12 36 42 62 30 
10 14 52 16 
72 33 21 56 
5 9 26 64 
23 60 17 20 
0 68 69 50 
31 27 18 4 70 
22 25 47 35 
28 1 75 73 
6 
